certificates/rado_a12_c64_N33.cnf
c Rad2 upper bound instance: x1 + 12*x2 - x3 = 64, interval [1,33]
p cnf 33 180
1 6 9 0
-1 -6 -9 0
1 7 21 0
-1 -7 -21 0
1 8 33 0
-1 -8 -33 0
2 6 10 0
-2 -6 -10 0
2 7 22 0
-2 -7 -22 0
3 6 11 0
-3 -6 -11 0
3 7 23 0
-3 -7 -23 0
4 6 12 0
-4 -6 -12 0
4 7 24 0
-4 -7 -24 0
1 5 0
-1 -5 0
5 6 13 0
-5 -6 -13 0
5 7 25 0
-5 -7 -25 0
2 5 6 0
-2 -5 -6 0
6 14 0
-6 -14 0
6 7 26 0
-6 -7 -26 0
3 5 7 0
-3 -5 -7 0
6 7 15 0
-6 -7 -15 0
7 27 0
-7 -27 0
4 5 8 0
-4 -5 -8 0
6 8 16 0
-6 -8 -16 0
7 8 28 0
-7 -8 -28 0
5 9 0
-5 -9 0
6 9 17 0
-6 -9 -17 0
7 9 29 0
-7 -9 -29 0
5 6 10 0
-5 -6 -10 0
6 10 18 0
-6 -10 -18 0
7 10 30 0
-7 -10 -30 0
5 7 11 0
-5 -7 -11 0
6 11 19 0
-6 -11 -19 0
7 11 31 0
-7 -11 -31 0
5 8 12 0
-5 -8 -12 0
6 12 20 0
-6 -12 -20 0
7 12 32 0
-7 -12 -32 0
5 9 13 0
-5 -9 -13 0
6 13 21 0
-6 -13 -21 0
7 13 33 0
-7 -13 -33 0
5 10 14 0
-5 -10 -14 0
6 14 22 0
-6 -14 -22 0
5 11 15 0
-5 -11 -15 0
6 15 23 0
-6 -15 -23 0
5 12 16 0
-5 -12 -16 0
6 16 24 0
-6 -16 -24 0
1 4 17 0
-1 -4 -17 0
5 13 17 0
-5 -13 -17 0
6 17 25 0
-6 -17 -25 0
2 4 18 0
-2 -4 -18 0
5 14 18 0
-5 -14 -18 0
6 18 26 0
-6 -18 -26 0
3 4 19 0
-3 -4 -19 0
5 15 19 0
-5 -15 -19 0
6 19 27 0
-6 -19 -27 0
4 20 0
-4 -20 0
5 16 20 0
-5 -16 -20 0
6 20 28 0
-6 -20 -28 0
4 5 21 0
-4 -5 -21 0
5 17 21 0
-5 -17 -21 0
6 21 29 0
-6 -21 -29 0
4 6 22 0
-4 -6 -22 0
5 18 22 0
-5 -18 -22 0
6 22 30 0
-6 -22 -30 0
4 7 23 0
-4 -7 -23 0
5 19 23 0
-5 -19 -23 0
6 23 31 0
-6 -23 -31 0
4 8 24 0
-4 -8 -24 0
5 20 24 0
-5 -20 -24 0
6 24 32 0
-6 -24 -32 0
4 9 25 0
-4 -9 -25 0
5 21 25 0
-5 -21 -25 0
6 25 33 0
-6 -25 -33 0
4 10 26 0
-4 -10 -26 0
5 22 26 0
-5 -22 -26 0
4 11 27 0
-4 -11 -27 0
5 23 27 0
-5 -23 -27 0
4 12 28 0
-4 -12 -28 0
5 24 28 0
-5 -24 -28 0
1 3 29 0
-1 -3 -29 0
4 13 29 0
-4 -13 -29 0
5 25 29 0
-5 -25 -29 0
2 3 30 0
-2 -3 -30 0
4 14 30 0
-4 -14 -30 0
5 26 30 0
-5 -26 -30 0
3 31 0
-3 -31 0
4 15 31 0
-4 -15 -31 0
5 27 31 0
-5 -27 -31 0
3 4 32 0
-3 -4 -32 0
4 16 32 0
-4 -16 -32 0
5 28 32 0
-5 -28 -32 0
3 5 33 0
-3 -5 -33 0
4 17 33 0
-4 -17 -33 0
5 29 33 0
-5 -29 -33 0
