certificates/rado_a12_c64_N33.drat
-29 3 -33 0
3 -32 -33 0
-32 -33 0
d 3 -32 -33 0
5 -33 0
-33 0
-5 0
1 0
9 0
3 0
29 0
-6 0
-31 0
0
